0 4857
2401 4718
4802 4631
7203 4573
9604 4505
12005 4466
14406 4426
16807 4396
19208 4350
21609 4308
24010 4290
26411 4276
28812 4260
31213 4222
33614 4202
36015 4194
38416 4182
40817 4179
43218 4169
45619 4167
